
%FILE DATA:	Soccer Computational Problem for MiniZinc Models	%
%AUTHOR:	Jack Wall	%
%CONTACT:  	116397063@umail.ucc.ie			%
%LAST UPDATE:	01/22/2020, 10:43:00						%
%DESCRIPTION: 	360 games played with 20 games left				%

n=20; %number of teams

%Games to play
games=[|2,17|8,3|16,20|20,1|5,3|11,12|17,19|5,19|12,15|6,3|4,20|11,2|13,19|19,13|18,4|15,14|15,8|11,16|13,14|13,20|];

%Initial points
iPoints=[41,66,45,41,46,58,43,49,51,37,53,51,49,43,40,51,46,56,51,46];

%POSITION CONSTRAINTS
% [|teamID, operator, position|...]
% operators index:
%  1 for =  operator
%  2 for >  operator
%  3 for >= operator
%  4 for <  operator
%  5 for <= operator
positionConstraints=[|2,4,2|6,4,3|19,4,4|];